(set-info :Origin "This instance was generated by: BanditFuzz-- an RL fuzzer for SMT solvers" )
(set-info :Author "Joe Scott, Fed Mora, Vijay Ganesh" )
(set-info :Contact "Joe Scott, joseph.scott@uwaterloo.ca")
(set-logic QF_BV)
(declare-const bool_0 Bool)
(declare-const bool_1 Bool)
(declare-const bool_2 Bool)
(declare-const bool_3 Bool)
(declare-const bool_4 Bool)
(declare-const bv_0 (_ BitVec 32))
(declare-const bv_1 (_ BitVec 32))
(declare-const bv_2 (_ BitVec 32))
(declare-const bv_3 (_ BitVec 32))
(declare-const bv_4 (_ BitVec 32))
(assert (bvslt (bvashr (bvmul bv_4 #xfc7a5c95 ) (bvurem bv_1 #xcd29abcc )) (bvnor (bvadd #xe01f0ecb  bv_1) (bvadd #x5a3506c3  #x3b3642fa ))))
(assert (bvult (bvurem (bvnor #xfce1271e  bv_3) (bvshl #x148d1366  #x645df75a )) (bvadd (bvand bv_3 bv_4) (bvashr bv_3 #x8fabf48e ))))
(assert (and (bvugt (bvor #xcc87ff2f  bv_4) (bvor bv_0 #xa314fd34 )) (bvugt (bvlshr bv_1 bv_2) (bvor bv_3 bv_3))))
(assert (bvule (bvand (bvsmod bv_0 bv_4) (bvadd #x250f373b  #x95ba70ae )) (bvxnor (bvnor bv_1 bv_0) (bvsrem #x0faf00f3  #xb2bc446b ))))
(assert (bvult (bvsrem (bvsrem #xfe39c69f  bv_3) (bvsrem bv_4 bv_4)) (bvsmod (bvashr #x8cb101bb  bv_0) (bvashr #xadfcb62f  #x4f01810d ))))
(check-sat)
(exit)
